Instance Name : r207
Date : 2022-07-18
Solution
Route 1 : 89 96 92 97 42 43 15 23 67 39 72 73 21 40 53 6 99 91 44 38 14 87 2 57 41 22 74 75 56 4 25 55 54 24 29 68 80 77 12 26 28
Route 2 : 27 69 1 50 33 51 30 20 65 9 81 76 3 79 78 34 35 71 66 32 90 10 70 31 52
Route 3 : 83 45 46 36 47 48 7 88 62 11 63 64 49 19 82 8 18 60 5 84 17 86 16 61 85 100 37 98 93 59 95 94 13 58
